etc/specs/where_bacp/conjure-output/model000001-a-solution000001.eprime-solution
language ESSENCE' 1.0

letting looped be true
letting paths be
        [[true, true, true, true, true, true; int(1..6)],
         [true, true, true, true, true, true; int(1..6)],
         [true, true, true, true, true, true; int(1..6)],
         [true, true, true, true, true, true; int(1..6)],
         [true, true, true, true, true, true; int(1..6)],
         [true, true, true, true, true, true; int(1..6)]; int(1..6)]
